[[89, 90, 99, 98, 97, 96, 87, 95, 86, 85, 94, 93, 92, 91, 82, 83, 84, 76, 73], [75, 74, 67, 66, 65, 64, 56, 58, 59, 49, 57, 55, 46, 47, 38, 48, 39, 40], [41, 32, 31, 29, 37, 28, 30, 21, 22, 19, 20, 13, 12, 11, 10, 2, 3, 4, 14, 5], [6, 7, 15, 23, 24, 25, 16, 8, 9, 18, 17, 27, 26, 35, 36, 44, 34, 33, 43, 42], [45, 50, 51, 60, 52, 53, 54, 63, 62, 61, 71, 72, 81, 80, 70, 69, 68, 78, 77, 79, 88]]